Maximize
 obj: 0
Subject to

\true constraints
   91 X1
 +    98 X2
 +    90 X3
 +    73 X4
 +    84 X5
 +    62 X6
 +    61 X7
 +    88 X8
 +    99 X9
 +    60 X10
 +    86 X11
 +    76 X12
 +    72 X13
 +    82 X14
 +    67 X15
< 594.500000

\multiple objectives
   88 X1
 +    91 X2
 +    98 X3
 +    61 X4
 +    93 X5
 +    65 X6
 +    71 X7
 +    91 X8
 +    62 X9
 +    73 X10
 +    60 X11
 +    88 X12
 +    78 X13
 +    81 X14
 +    93 X15
> 1
   72 X1
 +    61 X2
 +    92 X3
 +    94 X4
 +    67 X5
 +   100 X6
 +    98 X7
 +    62 X8
 +    76 X9
 +    63 X10
 +    78 X11
 +    82 X12
 +    92 X13
 +    71 X14
 +    88 X15
> 2
   84 X1
 +    86 X2
 +    62 X3
 +    64 X4
 +    88 X5
 +    78 X6
 +    68 X7
 +    82 X8
 +    75 X9
 +    63 X10
 +    93 X11
 +    75 X12
 +    81 X13
 +    99 X14
 +    99 X15
> 3
   60 X1
 +    61 X2
 +    92 X3
 +    96 X4
 +    77 X5
 +    87 X6
 +    93 X7
 +    69 X8
 +    78 X9
 +    94 X10
 +    64 X11
 +    67 X12
 +    82 X13
 +    74 X14
 +    65 X15
> 4
   71 X1
 +    75 X2
 +    86 X3
 +    85 X4
 +    61 X5
 +    95 X6
 +    69 X7
 +    61 X8
 +    90 X9
 +    75 X10
 +   100 X11
 +    77 X12
 +    61 X13
 +   100 X14
 +    83 X15
> 5
   81 X1
 +    99 X2
 +    65 X3
 +    81 X4
 +    78 X5
 +    67 X6
 +    65 X7
 +    96 X8
 +    70 X9
 +    79 X10
 +    89 X11
 +    92 X12
 +    76 X13
 +    97 X14
 +    60 X15
> 6
   91 X1
 +    69 X2
 +    99 X3
 +    75 X4
 +    78 X5
 +    85 X6
 +    60 X7
 +    92 X8
 +    92 X9
 +    90 X10
 +    97 X11
 +    73 X12
 +   100 X13
 +    78 X14
 +    63 X15
> 7
BINARY
X1
X2
X3
X4
X5
X6
X7
X8
X9
X10
X11
X12
X13
X14
X15
END
